phonons of CH4 in super cell at Gamma
 &inputph
  outdir='./',
  prefix='ch4',
  amass(1)=12.01,
  amass(2)=1.01,
  fildyn='ch4.dynG',
  trans= .true.
 /
0.0 0.0 0.0
