phonons of H2O in super cell at Gamma
 &inputph
  outdir='./',
  prefix='h2o',
  amass(1)=1.01,
  amass(2)=16.01,
  fildyn='h2o.dynG',
  trans= .true.
 /
0.0 0.0 0.0
